!B3LYP 6-31G(d) OPT TightSCF PAL8

%scf
  MaxIter 500
end

* xyz 0 1
S          6.34896       -4.41019       -1.62797
S          4.56942       -4.95671       -0.77987
S          3.16506       -3.65278       -1.48408
S          2.86244       -2.26939       -0.00784
S          3.93153       -0.61219       -0.53610
S          5.65780       -0.65863        0.56050
S          7.11542       -1.36967       -0.67973
S          7.36481       -3.34560       -0.21267
Li        -2.32972       -2.00318       -0.51117
Li        12.73236       -3.46877       -0.26812
*